{
  "time": [
    115471,
    115472,
    115472,
    115473,
    115473,
    115474,
    115474,
    115474,
    115474,
    115475,
    115475,
    115475,
    115475,
    115476,
    115476,
    115477,
    115477,
    115478,
    115479,
    115479,
    115479,
    115479,
    115480,
    115480,
    115481,
    115483,
    115483,
    115484,
    115484,
    115484,
    115484,
    115485,
    115485,
    115485,
    115486,
    115486,
    115486,
    115487,
    115487,
    115489,
    115501
  ],
  "cost": [
    1287,
    1256,
    1252,
    1249,
    1057,
    1021,
    1019,
    1015,
    1011,
    1009,
    927,
    891,
    885,
    882,
    879,
    767,
    764,
    762,
    630,
    614,
    612,
    609,
    605,
    602,
    599,
    463,
    448,
    430,
    428,
    423,
    418,
    412,
    289,
    269,
    266,
    261,
    258,
    256,
    138,
    47,
    0
  ]
}